Results/Experiment 1 Results/Existing Benchmark/RES_40/i-40-75-16.txt
solutions: 3 nodes: 6  modelTime: 146  solveTime: 26  totalTime: 176  modelSize: 7857  readTime: 4 matchingSize: 20
