Results/Experiment 2 Results/Existing Benchmark/i-40-75-16.lp
clingo version 5.4.0
Reading from tempSRTISolver.lp ...
Solving...
Answer: 1
matched(11,3) matched(40,4) matched(28,5) matched(1,8) matched(15,9) matched(13,10) matched(3,11) matched(29,12) matched(32,14) matched(9,15) matched(34,16) matched(31,17) matched(37,18) matched(27,19) matched(39,20) matched(36,21) matched(23,22) matched(22,23) matched(24,25) matched(2,26) matched(5,28) matched(12,29) matched(7,30) matched(17,31) matched(16,34) matched(38,35) matched(18,37) matched(35,38) matched(20,39) matched(33,6) matched(30,7) matched(19,27) matched(14,32) matched(6,33) matched(21,36) matched(4,40) matched(8,1) matched(26,2) matched(10,13) matched(25,24)
Optimization: 219
Answer: 2
matched(11,3) matched(40,4) matched(28,5) matched(1,8) matched(15,9) matched(16,10) matched(3,11) matched(29,12) matched(32,14) matched(9,15) matched(10,16) matched(31,17) matched(37,18) matched(27,19) matched(39,20) matched(36,21) matched(23,22) matched(22,23) matched(24,25) matched(2,26) matched(5,28) matched(12,29) matched(7,30) matched(17,31) matched(13,34) matched(38,35) matched(18,37) matched(35,38) matched(20,39) matched(33,6) matched(30,7) matched(19,27) matched(14,32) matched(6,33) matched(21,36) matched(4,40) matched(8,1) matched(26,2) matched(34,13) matched(25,24)
Optimization: 200
OPTIMUM FOUND

Models       : 2
  Optimum    : yes
Optimization : 200
Calls        : 1
Time         : 0.548s (Solving: 0.03s 1st Model: 0.01s Unsat: 0.02s)
CPU Time     : 0.533s
